myproject/instances/20nodes/rnd23_20.tsp
NAME : rnd23_20.tsp
TYPE : TSP
DIMENSION : 20
EDGE_WEIGHT_TYPE : EUC_2D
NODE_COORD_SECTION
1 908 707
2 594 700
3 107 619
4 455 715
5 714 296
6 281 369
7 436 836
8 708 863
9 230 477
10 873 282
11 198 757
12 343 858
13 690 49
14 783 957
15 531 621
16 924 793
17 202 201
18 350 98
19 782 315
20 78 366
