myproject/instances/20nodes/rnd23_20.opt.tour
NAME : rnd23_20.tsp.tsp.optbc.tour
TYPE : TOUR
DIMENSION : 20
TOUR_SECTION
1
10
19
5
13
18
17
6
9
20
3
11
12
7
4
15
2
8
14
16
-1